% Auto-generated by scripts/generate_dzn.py
% problem_type   = regex
% instance       = regex_1
% source_json    = instances_json/1_medium_blowup/regex_1.json
% blowup         = 8.9
% representation = DFA

mode = 0;

var_count = 23;
Q = 89;
S = 2;
q0 = 1;
F = {56, 57, 58, 59, 60, 61, 62, 63, 64, 65, 66, 67, 68, 69, 70, 71, 72, 73, 74, 75, 76, 77, 78, 79, 80, 81, 82, 83, 84, 85, 86, 87, 88, 89};
d_dfa = array2d(1..89, 1..2, [
  2, 1,
  2, 3,
  5, 4,
  7, 6,
  7, 8,
  10, 9,
  10, 11,
  13, 12,
  15, 14,
  15, 16,
  18, 17,
  20, 19,
  20, 21,
  23, 22,
  23, 24,
  26, 25,
  28, 27,
  28, 29,
  31, 30,
  31, 32,
  34, 33,
  36, 35,
  36, 37,
  39, 38,
  41, 40,
  41, 42,
  44, 43,
  44, 45,
  47, 46,
  49, 48,
  49, 50,
  52, 51,
  54, 53,
  54, 55,
  57, 56,
  57, 58,
  60, 59,
  62, 61,
  62, 63,
  65, 64,
  65, 66,
  68, 67,
  70, 69,
  70, 71,
  73, 72,
  75, 74,
  75, 76,
  78, 77,
  78, 79,
  81, 80,
  83, 82,
  83, 84,
  86, 85,
  86, 87,
  89, 88,
  2, 1,
  2, 3,
  5, 4,
  7, 6,
  7, 8,
  10, 9,
  10, 11,
  13, 12,
  15, 14,
  15, 16,
  18, 17,
  20, 19,
  20, 21,
  23, 22,
  23, 24,
  26, 25,
  28, 27,
  28, 29,
  31, 30,
  31, 32,
  34, 33,
  36, 35,
  36, 37,
  39, 38,
  41, 40,
  41, 42,
  44, 43,
  44, 45,
  47, 46,
  49, 48,
  49, 50,
  52, 51,
  54, 53,
  54, 55
]);
d_nfa = array2d(1..89, 1..2, [
  {}, {},
  {}, {},
  {}, {},
  {}, {},
  {}, {},
  {}, {},
  {}, {},
  {}, {},
  {}, {},
  {}, {},
  {}, {},
  {}, {},
  {}, {},
  {}, {},
  {}, {},
  {}, {},
  {}, {},
  {}, {},
  {}, {},
  {}, {},
  {}, {},
  {}, {},
  {}, {},
  {}, {},
  {}, {},
  {}, {},
  {}, {},
  {}, {},
  {}, {},
  {}, {},
  {}, {},
  {}, {},
  {}, {},
  {}, {},
  {}, {},
  {}, {},
  {}, {},
  {}, {},
  {}, {},
  {}, {},
  {}, {},
  {}, {},
  {}, {},
  {}, {},
  {}, {},
  {}, {},
  {}, {},
  {}, {},
  {}, {},
  {}, {},
  {}, {},
  {}, {},
  {}, {},
  {}, {},
  {}, {},
  {}, {},
  {}, {},
  {}, {},
  {}, {},
  {}, {},
  {}, {},
  {}, {},
  {}, {},
  {}, {},
  {}, {},
  {}, {},
  {}, {},
  {}, {},
  {}, {},
  {}, {},
  {}, {},
  {}, {},
  {}, {},
  {}, {},
  {}, {},
  {}, {},
  {}, {},
  {}, {},
  {}, {},
  {}, {},
  {}, {},
  {}, {},
  {}, {},
  {}, {},
  {}, {},
  {}, {},
  {}, {},
  {}, {},
  {}, {}
]);
